NAME CFLP
ROWS
 N  OBJ
 E  demand_1
 E  demand_2
 E  demand_3
 E  demand_4
 E  demand_5
 E  demand_6
 E  demand_7
 E  demand_8
 E  demand_9
 E  demand_10
 E  demand_11
 E  demand_12
 E  demand_13
 E  demand_14
 E  demand_15
 E  demand_16
 E  demand_17
 E  demand_18
 E  demand_19
 E  demand_20
 E  demand_21
 E  demand_22
 E  demand_23
 E  demand_24
 E  demand_25
 E  demand_26
 E  demand_27
 E  demand_28
 L  c_disjunction_1_diajunct_1
 L  c_disjunction_1_disjunct_2
 E  R30     
 L  c_disjunction_2_diajunct_1
 L  c_disjunction_2_disjunct_2
 E  R33     
 L  c_disjunction_3_diajunct_1
 L  c_disjunction_3_disjunct_2
 E  R36     
 L  c_disjunction_4_diajunct_1
 L  c_disjunction_4_disjunct_2
 E  R39     
 L  c_disjunction_5_diajunct_1
 L  c_disjunction_5_disjunct_2
 E  R42     
 L  c_disjunction_6_diajunct_1
 L  c_disjunction_6_disjunct_2
 E  R45     
 L  c_disjunction_7_diajunct_1
 L  c_disjunction_7_disjunct_2
 E  R48     
 L  c_disjunction_8_diajunct_1
 L  c_disjunction_8_disjunct_2
 E  R51     
 L  c_disjunction_9_diajunct_1
 L  c_disjunction_9_disjunct_2
 E  R54     
 L  c_disjunction_10_diajunct_1
 L  c_disjunction_10_disjunct_2
 E  R57     
 L  c_disjunction_11_diajunct_1
 L  c_disjunction_11_disjunct_2
 E  R60     
 L  c_disjunction_12_diajunct_1
 L  c_disjunction_12_disjunct_2
 E  R63     
 L  c_disjunction_13_diajunct_1
 L  c_disjunction_13_disjunct_2
 E  R66     
 L  c_disjunction_14_diajunct_1
 L  c_disjunction_14_disjunct_2
 E  R69     
 L  c_disjunction_15_diajunct_1
 L  c_disjunction_15_disjunct_2
 E  R72     
 L  c_disjunction_16_diajunct_1
 L  c_disjunction_16_disjunct_2
 E  R75     
 L  c_disjunction_17_diajunct_1
 L  c_disjunction_17_disjunct_2
 E  R78     
 L  c_disjunction_18_diajunct_1
 L  c_disjunction_18_disjunct_2
 E  R81     
 L  c_disjunction_19_diajunct_1
 L  c_disjunction_19_disjunct_2
 E  R84     
 L  c_disjunction_20_diajunct_1
 L  c_disjunction_20_disjunct_2
 E  R87     
 L  c_disjunction_21_diajunct_1
 L  c_disjunction_21_disjunct_2
 E  R90     
 L  c_disjunction_22_diajunct_1
 L  c_disjunction_22_disjunct_2
 E  R93     
 L  c_disjunction_23_diajunct_1
 L  c_disjunction_23_disjunct_2
 E  R96     
 L  c_disjunction_24_diajunct_1
 L  c_disjunction_24_disjunct_2
 E  R99     
 L  c_disjunction_25_diajunct_1
 L  c_disjunction_25_disjunct_2
 E  R102    
 L  c_disjunction_26_diajunct_1
 L  c_disjunction_26_disjunct_2
 E  R105    
 L  c_disjunction_27_diajunct_1
 L  c_disjunction_27_disjunct_2
 E  R108    
 L  c_disjunction_28_diajunct_1
 L  c_disjunction_28_disjunct_2
 E  R111    
COLUMNS
    MARKER    'MARKER'                 'INTORG'
    ind_disjunction_1_disjunct_1  OBJ       1232
    ind_disjunction_1_disjunct_1  c_disjunction_1_diajunct_1  -129
    ind_disjunction_1_disjunct_1  R30       1
    ind_disjunction_2_disjunct_1  OBJ       1232
    ind_disjunction_2_disjunct_1  c_disjunction_2_diajunct_1  -129
    ind_disjunction_2_disjunct_1  R33       1
    ind_disjunction_3_disjunct_1  OBJ       1232
    ind_disjunction_3_disjunct_1  c_disjunction_3_diajunct_1  -129
    ind_disjunction_3_disjunct_1  R36       1
    ind_disjunction_4_disjunct_1  OBJ       1232
    ind_disjunction_4_disjunct_1  c_disjunction_4_diajunct_1  -129
    ind_disjunction_4_disjunct_1  R39       1
    ind_disjunction_5_disjunct_1  OBJ       1232
    ind_disjunction_5_disjunct_1  c_disjunction_5_diajunct_1  -129
    ind_disjunction_5_disjunct_1  R42       1
    ind_disjunction_6_disjunct_1  OBJ       1232
    ind_disjunction_6_disjunct_1  c_disjunction_6_diajunct_1  -129
    ind_disjunction_6_disjunct_1  R45       1
    ind_disjunction_7_disjunct_1  OBJ       1232
    ind_disjunction_7_disjunct_1  c_disjunction_7_diajunct_1  -129
    ind_disjunction_7_disjunct_1  R48       1
    ind_disjunction_8_disjunct_1  OBJ       1232
    ind_disjunction_8_disjunct_1  c_disjunction_8_diajunct_1  -129
    ind_disjunction_8_disjunct_1  R51       1
    ind_disjunction_9_disjunct_1  OBJ       1232
    ind_disjunction_9_disjunct_1  c_disjunction_9_diajunct_1  -129
    ind_disjunction_9_disjunct_1  R54       1
    ind_disjunction_10_disjunct_1  OBJ       1232
    ind_disjunction_10_disjunct_1  c_disjunction_10_diajunct_1  -129
    ind_disjunction_10_disjunct_1  R57       1
    ind_disjunction_11_disjunct_1  OBJ       1232
    ind_disjunction_11_disjunct_1  c_disjunction_11_diajunct_1  -129
    ind_disjunction_11_disjunct_1  R60       1
    ind_disjunction_12_disjunct_1  OBJ       1232
    ind_disjunction_12_disjunct_1  c_disjunction_12_diajunct_1  -129
    ind_disjunction_12_disjunct_1  R63       1
    ind_disjunction_13_disjunct_1  OBJ       1232
    ind_disjunction_13_disjunct_1  c_disjunction_13_diajunct_1  -129
    ind_disjunction_13_disjunct_1  R66       1
    ind_disjunction_14_disjunct_1  OBJ       1232
    ind_disjunction_14_disjunct_1  c_disjunction_14_diajunct_1  -129
    ind_disjunction_14_disjunct_1  R69       1
    ind_disjunction_15_disjunct_1  OBJ       1232
    ind_disjunction_15_disjunct_1  c_disjunction_15_diajunct_1  -129
    ind_disjunction_15_disjunct_1  R72       1
    ind_disjunction_16_disjunct_1  OBJ       1232
    ind_disjunction_16_disjunct_1  c_disjunction_16_diajunct_1  -129
    ind_disjunction_16_disjunct_1  R75       1
    ind_disjunction_17_disjunct_1  OBJ       1232
    ind_disjunction_17_disjunct_1  c_disjunction_17_diajunct_1  -129
    ind_disjunction_17_disjunct_1  R78       1
    ind_disjunction_18_disjunct_1  OBJ       1232
    ind_disjunction_18_disjunct_1  c_disjunction_18_diajunct_1  -129
    ind_disjunction_18_disjunct_1  R81       1
    ind_disjunction_19_disjunct_1  OBJ       1232
    ind_disjunction_19_disjunct_1  c_disjunction_19_diajunct_1  -129
    ind_disjunction_19_disjunct_1  R84       1
    ind_disjunction_20_disjunct_1  OBJ       1232
    ind_disjunction_20_disjunct_1  c_disjunction_20_diajunct_1  -129
    ind_disjunction_20_disjunct_1  R87       1
    ind_disjunction_21_disjunct_1  OBJ       1232
    ind_disjunction_21_disjunct_1  c_disjunction_21_diajunct_1  -129
    ind_disjunction_21_disjunct_1  R90       1
    ind_disjunction_22_disjunct_1  OBJ       1232
    ind_disjunction_22_disjunct_1  c_disjunction_22_diajunct_1  -129
    ind_disjunction_22_disjunct_1  R93       1
    ind_disjunction_23_disjunct_1  OBJ       1232
    ind_disjunction_23_disjunct_1  c_disjunction_23_diajunct_1  -129
    ind_disjunction_23_disjunct_1  R96       1
    ind_disjunction_24_disjunct_1  OBJ       1232
    ind_disjunction_24_disjunct_1  c_disjunction_24_diajunct_1  -129
    ind_disjunction_24_disjunct_1  R99       1
    ind_disjunction_25_disjunct_1  OBJ       1232
    ind_disjunction_25_disjunct_1  c_disjunction_25_diajunct_1  -129
    ind_disjunction_25_disjunct_1  R102      1
    ind_disjunction_26_disjunct_1  OBJ       1232
    ind_disjunction_26_disjunct_1  c_disjunction_26_diajunct_1  -129
    ind_disjunction_26_disjunct_1  R105      1
    ind_disjunction_27_disjunct_1  OBJ       1232
    ind_disjunction_27_disjunct_1  c_disjunction_27_diajunct_1  -129
    ind_disjunction_27_disjunct_1  R108      1
    ind_disjunction_28_disjunct_1  OBJ       1232
    ind_disjunction_28_disjunct_1  c_disjunction_28_diajunct_1  -129
    ind_disjunction_28_disjunct_1  R111      1
    ind_disjunction_1_disjunct_2  c_disjunction_1_disjunct_2  2
    ind_disjunction_1_disjunct_2  R30       1
    ind_disjunction_2_disjunct_2  c_disjunction_2_disjunct_2  2
    ind_disjunction_2_disjunct_2  R33       1
    ind_disjunction_3_disjunct_2  c_disjunction_3_disjunct_2  2
    ind_disjunction_3_disjunct_2  R36       1
    ind_disjunction_4_disjunct_2  c_disjunction_4_disjunct_2  2
    ind_disjunction_4_disjunct_2  R39       1
    ind_disjunction_5_disjunct_2  c_disjunction_5_disjunct_2  1
    ind_disjunction_5_disjunct_2  R42       1
    ind_disjunction_6_disjunct_2  c_disjunction_6_disjunct_2  2
    ind_disjunction_6_disjunct_2  R45       1
    ind_disjunction_7_disjunct_2  c_disjunction_7_disjunct_2  1
    ind_disjunction_7_disjunct_2  R48       1
    ind_disjunction_8_disjunct_2  c_disjunction_8_disjunct_2  2
    ind_disjunction_8_disjunct_2  R51       1
    ind_disjunction_9_disjunct_2  c_disjunction_9_disjunct_2  2
    ind_disjunction_9_disjunct_2  R54       1
    ind_disjunction_10_disjunct_2  c_disjunction_10_disjunct_2  1
    ind_disjunction_10_disjunct_2  R57       1
    ind_disjunction_11_disjunct_2  c_disjunction_11_disjunct_2  3
    ind_disjunction_11_disjunct_2  R60       1
    ind_disjunction_12_disjunct_2  c_disjunction_12_disjunct_2  3
    ind_disjunction_12_disjunct_2  R63       1
    ind_disjunction_13_disjunct_2  c_disjunction_13_disjunct_2  4
    ind_disjunction_13_disjunct_2  R66       1
    ind_disjunction_14_disjunct_2  c_disjunction_14_disjunct_2  3
    ind_disjunction_14_disjunct_2  R69       1
    ind_disjunction_15_disjunct_2  c_disjunction_15_disjunct_2  1
    ind_disjunction_15_disjunct_2  R72       1
    ind_disjunction_16_disjunct_2  c_disjunction_16_disjunct_2  2
    ind_disjunction_16_disjunct_2  R75       1
    ind_disjunction_17_disjunct_2  c_disjunction_17_disjunct_2  2
    ind_disjunction_17_disjunct_2  R78       1
    ind_disjunction_18_disjunct_2  c_disjunction_18_disjunct_2  2
    ind_disjunction_18_disjunct_2  R81       1
    ind_disjunction_19_disjunct_2  c_disjunction_19_disjunct_2  2
    ind_disjunction_19_disjunct_2  R84       1
    ind_disjunction_20_disjunct_2  c_disjunction_20_disjunct_2  1
    ind_disjunction_20_disjunct_2  R87       1
    ind_disjunction_21_disjunct_2  c_disjunction_21_disjunct_2  2
    ind_disjunction_21_disjunct_2  R90       1
    ind_disjunction_22_disjunct_2  c_disjunction_22_disjunct_2  2
    ind_disjunction_22_disjunct_2  R93       1
    ind_disjunction_23_disjunct_2  c_disjunction_23_disjunct_2  3
    ind_disjunction_23_disjunct_2  R96       1
    ind_disjunction_24_disjunct_2  c_disjunction_24_disjunct_2  3
    ind_disjunction_24_disjunct_2  R99       1
    ind_disjunction_25_disjunct_2  c_disjunction_25_disjunct_2  1
    ind_disjunction_25_disjunct_2  R102      1
    ind_disjunction_26_disjunct_2  c_disjunction_26_disjunct_2  1
    ind_disjunction_26_disjunct_2  R105      1
    ind_disjunction_27_disjunct_2  c_disjunction_27_disjunct_2  2
    ind_disjunction_27_disjunct_2  R108      1
    ind_disjunction_28_disjunct_2  c_disjunction_28_disjunct_2  2
    ind_disjunction_28_disjunct_2  R111      1
    x[1,1]    demand_1  1
    x[1,1]    c_disjunction_1_diajunct_1  35
    x[1,1]    c_disjunction_1_disjunct_2  1
    x[14,1]   OBJ       32.2
    x[14,1]   demand_1  1
    x[14,1]   c_disjunction_14_diajunct_1  35
    x[14,1]   c_disjunction_14_disjunct_2  1
    x[2,2]    demand_2  1
    x[2,2]    c_disjunction_2_diajunct_1  27
    x[2,2]    c_disjunction_2_disjunct_2  1
    x[12,2]   OBJ       22.7
    x[12,2]   demand_2  1
    x[12,2]   c_disjunction_12_diajunct_1  27
    x[12,2]   c_disjunction_12_disjunct_2  1
    x[3,3]    demand_3  1
    x[3,3]    c_disjunction_3_diajunct_1  27
    x[3,3]    c_disjunction_3_disjunct_2  1
    x[17,3]   OBJ       43.8
    x[17,3]   demand_3  1
    x[17,3]   c_disjunction_17_diajunct_1  27
    x[17,3]   c_disjunction_17_disjunct_2  1
    x[4,4]    demand_4  1
    x[4,4]    c_disjunction_4_diajunct_1  26
    x[4,4]    c_disjunction_4_disjunct_2  1
    x[24,4]   OBJ       25.5
    x[24,4]   demand_4  1
    x[24,4]   c_disjunction_24_diajunct_1  26
    x[24,4]   c_disjunction_24_disjunct_2  1
    x[5,5]    demand_5  1
    x[5,5]    c_disjunction_5_diajunct_1  35
    x[5,5]    c_disjunction_5_disjunct_2  1
    x[3,5]    OBJ       69
    x[3,5]    demand_5  1
    x[3,5]    c_disjunction_3_diajunct_1  35
    x[3,5]    c_disjunction_3_disjunct_2  1
    x[6,6]    demand_6  1
    x[6,6]    c_disjunction_6_diajunct_1  33
    x[6,6]    c_disjunction_6_disjunct_2  1
    x[22,6]   OBJ       51.8
    x[22,6]   demand_6  1
    x[22,6]   c_disjunction_22_diajunct_1  33
    x[22,6]   c_disjunction_22_disjunct_2  1
    x[7,7]    demand_7  1
    x[7,7]    c_disjunction_7_diajunct_1  20
    x[7,7]    c_disjunction_7_disjunct_2  1
    x[14,7]   OBJ       19.2
    x[14,7]   demand_7  1
    x[14,7]   c_disjunction_14_diajunct_1  20
    x[14,7]   c_disjunction_14_disjunct_2  1
    x[8,8]    demand_8  1
    x[8,8]    c_disjunction_8_diajunct_1  30
    x[8,8]    c_disjunction_8_disjunct_2  1
    x[28,8]   OBJ       22.6
    x[28,8]   demand_8  1
    x[28,8]   c_disjunction_28_diajunct_1  30
    x[28,8]   c_disjunction_28_disjunct_2  1
    x[9,9]    demand_9  1
    x[9,9]    c_disjunction_9_diajunct_1  23
    x[9,9]    c_disjunction_9_disjunct_2  1
    x[21,9]   OBJ       22.8
    x[21,9]   demand_9  1
    x[21,9]   c_disjunction_21_diajunct_1  23
    x[21,9]   c_disjunction_21_disjunct_2  1
    x[10,10]  demand_10  1
    x[10,10]  c_disjunction_10_diajunct_1  31
    x[10,10]  c_disjunction_10_disjunct_2  1
    x[13,10]  OBJ       32.9
    x[13,10]  demand_10  1
    x[13,10]  c_disjunction_13_diajunct_1  31
    x[13,10]  c_disjunction_13_disjunct_2  1
    x[11,11]  demand_11  1
    x[11,11]  c_disjunction_11_diajunct_1  20
    x[11,11]  c_disjunction_11_disjunct_2  1
    x[27,11]  OBJ       22.9
    x[27,11]  demand_11  1
    x[27,11]  c_disjunction_27_diajunct_1  20
    x[27,11]  c_disjunction_27_disjunct_2  1
    x[12,12]  demand_12  1
    x[12,12]  c_disjunction_12_diajunct_1  24
    x[12,12]  c_disjunction_12_disjunct_2  1
    x[2,12]   OBJ       20.2
    x[2,12]   demand_12  1
    x[2,12]   c_disjunction_2_diajunct_1  24
    x[2,12]   c_disjunction_2_disjunct_2  1
    x[13,13]  demand_13  1
    x[13,13]  c_disjunction_13_diajunct_1  24
    x[13,13]  c_disjunction_13_disjunct_2  1
    x[23,13]  OBJ       12.9
    x[23,13]  demand_13  1
    x[23,13]  c_disjunction_23_diajunct_1  24
    x[23,13]  c_disjunction_23_disjunct_2  1
    x[14,14]  demand_14  1
    x[14,14]  c_disjunction_14_diajunct_1  29
    x[14,14]  c_disjunction_14_disjunct_2  1
    x[1,14]   OBJ       26.7
    x[1,14]   demand_14  1
    x[1,14]   c_disjunction_1_diajunct_1  29
    x[1,14]   c_disjunction_1_disjunct_2  1
    x[15,15]  demand_15  1
    x[15,15]  c_disjunction_15_diajunct_1  5
    x[15,15]  c_disjunction_15_disjunct_2  1
    x[11,15]  OBJ       6.3
    x[11,15]  demand_15  1
    x[11,15]  c_disjunction_11_diajunct_1  5
    x[11,15]  c_disjunction_11_disjunct_2  1
    x[16,16]  demand_16  1
    x[16,16]  c_disjunction_16_diajunct_1  13
    x[16,16]  c_disjunction_16_disjunct_2  1
    x[19,16]  OBJ       10.9
    x[19,16]  demand_16  1
    x[19,16]  c_disjunction_19_diajunct_1  13
    x[19,16]  c_disjunction_19_disjunct_2  1
    x[17,17]  demand_17  1
    x[17,17]  c_disjunction_17_diajunct_1  8
    x[17,17]  c_disjunction_17_disjunct_2  1
    x[4,17]   OBJ       10
    x[4,17]   demand_17  1
    x[4,17]   c_disjunction_4_diajunct_1  8
    x[4,17]   c_disjunction_4_disjunct_2  1
    x[18,18]  demand_18  1
    x[18,18]  c_disjunction_18_diajunct_1  31
    x[18,18]  c_disjunction_18_disjunct_2  1
    x[24,18]  OBJ       25.7
    x[24,18]  demand_18  1
    x[24,18]  c_disjunction_24_diajunct_1  31
    x[24,18]  c_disjunction_24_disjunct_2  1
    x[19,19]  demand_19  1
    x[19,19]  c_disjunction_19_diajunct_1  20
    x[19,19]  c_disjunction_19_disjunct_2  1
    x[16,19]  OBJ       16.8
    x[16,19]  demand_19  1
    x[16,19]  c_disjunction_16_diajunct_1  20
    x[16,19]  c_disjunction_16_disjunct_2  1
    x[20,20]  demand_20  1
    x[20,20]  c_disjunction_20_diajunct_1  10
    x[20,20]  c_disjunction_20_disjunct_2  1
    x[13,20]  OBJ       10.6
    x[13,20]  demand_20  1
    x[13,20]  c_disjunction_13_diajunct_1  10
    x[13,20]  c_disjunction_13_disjunct_2  1
    x[21,21]  demand_21  1
    x[21,21]  c_disjunction_21_diajunct_1  9
    x[21,21]  c_disjunction_21_disjunct_2  1
    x[9,21]   OBJ       8.9
    x[9,21]   demand_21  1
    x[9,21]   c_disjunction_9_diajunct_1  9
    x[9,21]   c_disjunction_9_disjunct_2  1
    x[22,22]  demand_22  1
    x[22,22]  c_disjunction_22_diajunct_1  27
    x[22,22]  c_disjunction_22_disjunct_2  1
    x[6,22]   OBJ       42.4
    x[6,22]   demand_22  1
    x[6,22]   c_disjunction_6_diajunct_1  27
    x[6,22]   c_disjunction_6_disjunct_2  1
    x[23,23]  demand_23  1
    x[23,23]  c_disjunction_23_diajunct_1  34
    x[23,23]  c_disjunction_23_disjunct_2  1
    x[13,23]  OBJ       18.3
    x[13,23]  demand_23  1
    x[13,23]  c_disjunction_13_diajunct_1  34
    x[13,23]  c_disjunction_13_disjunct_2  1
    x[24,24]  demand_24  1
    x[24,24]  c_disjunction_24_diajunct_1  8
    x[24,24]  c_disjunction_24_disjunct_2  1
    x[18,24]  OBJ       6.6
    x[18,24]  demand_24  1
    x[18,24]  c_disjunction_18_diajunct_1  8
    x[18,24]  c_disjunction_18_disjunct_2  1
    x[25,25]  demand_25  1
    x[25,25]  c_disjunction_25_diajunct_1  5
    x[25,25]  c_disjunction_25_disjunct_2  1
    x[23,25]  OBJ       4.1
    x[23,25]  demand_25  1
    x[23,25]  c_disjunction_23_diajunct_1  5
    x[23,25]  c_disjunction_23_disjunct_2  1
    x[26,26]  demand_26  1
    x[26,26]  c_disjunction_26_diajunct_1  9
    x[26,26]  c_disjunction_26_disjunct_2  1
    x[12,26]  OBJ       10.7
    x[12,26]  demand_26  1
    x[12,26]  c_disjunction_12_diajunct_1  9
    x[12,26]  c_disjunction_12_disjunct_2  1
    x[27,27]  demand_27  1
    x[27,27]  c_disjunction_27_diajunct_1  25
    x[27,27]  c_disjunction_27_disjunct_2  1
    x[11,27]  OBJ       28.7
    x[11,27]  demand_27  1
    x[11,27]  c_disjunction_11_diajunct_1  25
    x[11,27]  c_disjunction_11_disjunct_2  1
    x[28,28]  demand_28  1
    x[28,28]  c_disjunction_28_diajunct_1  15
    x[28,28]  c_disjunction_28_disjunct_2  1
    x[8,28]   OBJ       11.3
    x[8,28]   demand_28  1
    x[8,28]   c_disjunction_8_diajunct_1  15
    x[8,28]   c_disjunction_8_disjunct_2  1
    MARKER    'MARKER'                 'INTEND'
RHS
    RHS1      demand_1  1
    RHS1      demand_2  1
    RHS1      demand_3  1
    RHS1      demand_4  1
    RHS1      demand_5  1
    RHS1      demand_6  1
    RHS1      demand_7  1
    RHS1      demand_8  1
    RHS1      demand_9  1
    RHS1      demand_10  1
    RHS1      demand_11  1
    RHS1      demand_12  1
    RHS1      demand_13  1
    RHS1      demand_14  1
    RHS1      demand_15  1
    RHS1      demand_16  1
    RHS1      demand_17  1
    RHS1      demand_18  1
    RHS1      demand_19  1
    RHS1      demand_20  1
    RHS1      demand_21  1
    RHS1      demand_22  1
    RHS1      demand_23  1
    RHS1      demand_24  1
    RHS1      demand_25  1
    RHS1      demand_26  1
    RHS1      demand_27  1
    RHS1      demand_28  1
    RHS1      c_disjunction_1_disjunct_2  2
    RHS1      R30       1
    RHS1      c_disjunction_2_disjunct_2  2
    RHS1      R33       1
    RHS1      c_disjunction_3_disjunct_2  2
    RHS1      R36       1
    RHS1      c_disjunction_4_disjunct_2  2
    RHS1      R39       1
    RHS1      c_disjunction_5_disjunct_2  1
    RHS1      R42       1
    RHS1      c_disjunction_6_disjunct_2  2
    RHS1      R45       1
    RHS1      c_disjunction_7_disjunct_2  1
    RHS1      R48       1
    RHS1      c_disjunction_8_disjunct_2  2
    RHS1      R51       1
    RHS1      c_disjunction_9_disjunct_2  2
    RHS1      R54       1
    RHS1      c_disjunction_10_disjunct_2  1
    RHS1      R57       1
    RHS1      c_disjunction_11_disjunct_2  3
    RHS1      R60       1
    RHS1      c_disjunction_12_disjunct_2  3
    RHS1      R63       1
    RHS1      c_disjunction_13_disjunct_2  4
    RHS1      R66       1
    RHS1      c_disjunction_14_disjunct_2  3
    RHS1      R69       1
    RHS1      c_disjunction_15_disjunct_2  1
    RHS1      R72       1
    RHS1      c_disjunction_16_disjunct_2  2
    RHS1      R75       1
    RHS1      c_disjunction_17_disjunct_2  2
    RHS1      R78       1
    RHS1      c_disjunction_18_disjunct_2  2
    RHS1      R81       1
    RHS1      c_disjunction_19_disjunct_2  2
    RHS1      R84       1
    RHS1      c_disjunction_20_disjunct_2  1
    RHS1      R87       1
    RHS1      c_disjunction_21_disjunct_2  2
    RHS1      R90       1
    RHS1      c_disjunction_22_disjunct_2  2
    RHS1      R93       1
    RHS1      c_disjunction_23_disjunct_2  3
    RHS1      R96       1
    RHS1      c_disjunction_24_disjunct_2  3
    RHS1      R99       1
    RHS1      c_disjunction_25_disjunct_2  1
    RHS1      R102      1
    RHS1      c_disjunction_26_disjunct_2  1
    RHS1      R105      1
    RHS1      c_disjunction_27_disjunct_2  2
    RHS1      R108      1
    RHS1      c_disjunction_28_disjunct_2  2
    RHS1      R111      1
BOUNDS
 BV BND1      ind_disjunction_1_disjunct_1
 BV BND1      ind_disjunction_2_disjunct_1
 BV BND1      ind_disjunction_3_disjunct_1
 BV BND1      ind_disjunction_4_disjunct_1
 BV BND1      ind_disjunction_5_disjunct_1
 BV BND1      ind_disjunction_6_disjunct_1
 BV BND1      ind_disjunction_7_disjunct_1
 BV BND1      ind_disjunction_8_disjunct_1
 BV BND1      ind_disjunction_9_disjunct_1
 BV BND1      ind_disjunction_10_disjunct_1
 BV BND1      ind_disjunction_11_disjunct_1
 BV BND1      ind_disjunction_12_disjunct_1
 BV BND1      ind_disjunction_13_disjunct_1
 BV BND1      ind_disjunction_14_disjunct_1
 BV BND1      ind_disjunction_15_disjunct_1
 BV BND1      ind_disjunction_16_disjunct_1
 BV BND1      ind_disjunction_17_disjunct_1
 BV BND1      ind_disjunction_18_disjunct_1
 BV BND1      ind_disjunction_19_disjunct_1
 BV BND1      ind_disjunction_20_disjunct_1
 BV BND1      ind_disjunction_21_disjunct_1
 BV BND1      ind_disjunction_22_disjunct_1
 BV BND1      ind_disjunction_23_disjunct_1
 BV BND1      ind_disjunction_24_disjunct_1
 BV BND1      ind_disjunction_25_disjunct_1
 BV BND1      ind_disjunction_26_disjunct_1
 BV BND1      ind_disjunction_27_disjunct_1
 BV BND1      ind_disjunction_28_disjunct_1
 BV BND1      ind_disjunction_1_disjunct_2
 BV BND1      ind_disjunction_2_disjunct_2
 BV BND1      ind_disjunction_3_disjunct_2
 BV BND1      ind_disjunction_4_disjunct_2
 BV BND1      ind_disjunction_5_disjunct_2
 BV BND1      ind_disjunction_6_disjunct_2
 BV BND1      ind_disjunction_7_disjunct_2
 BV BND1      ind_disjunction_8_disjunct_2
 BV BND1      ind_disjunction_9_disjunct_2
 BV BND1      ind_disjunction_10_disjunct_2
 BV BND1      ind_disjunction_11_disjunct_2
 BV BND1      ind_disjunction_12_disjunct_2
 BV BND1      ind_disjunction_13_disjunct_2
 BV BND1      ind_disjunction_14_disjunct_2
 BV BND1      ind_disjunction_15_disjunct_2
 BV BND1      ind_disjunction_16_disjunct_2
 BV BND1      ind_disjunction_17_disjunct_2
 BV BND1      ind_disjunction_18_disjunct_2
 BV BND1      ind_disjunction_19_disjunct_2
 BV BND1      ind_disjunction_20_disjunct_2
 BV BND1      ind_disjunction_21_disjunct_2
 BV BND1      ind_disjunction_22_disjunct_2
 BV BND1      ind_disjunction_23_disjunct_2
 BV BND1      ind_disjunction_24_disjunct_2
 BV BND1      ind_disjunction_25_disjunct_2
 BV BND1      ind_disjunction_26_disjunct_2
 BV BND1      ind_disjunction_27_disjunct_2
 BV BND1      ind_disjunction_28_disjunct_2
 BV BND1      x[1,1]  
 BV BND1      x[14,1] 
 BV BND1      x[2,2]  
 BV BND1      x[12,2] 
 BV BND1      x[3,3]  
 BV BND1      x[17,3] 
 BV BND1      x[4,4]  
 BV BND1      x[24,4] 
 BV BND1      x[5,5]  
 BV BND1      x[3,5]  
 BV BND1      x[6,6]  
 BV BND1      x[22,6] 
 BV BND1      x[7,7]  
 BV BND1      x[14,7] 
 BV BND1      x[8,8]  
 BV BND1      x[28,8] 
 BV BND1      x[9,9]  
 BV BND1      x[21,9] 
 BV BND1      x[10,10]
 BV BND1      x[13,10]
 BV BND1      x[11,11]
 BV BND1      x[27,11]
 BV BND1      x[12,12]
 BV BND1      x[2,12] 
 BV BND1      x[13,13]
 BV BND1      x[23,13]
 BV BND1      x[14,14]
 BV BND1      x[1,14] 
 BV BND1      x[15,15]
 BV BND1      x[11,15]
 BV BND1      x[16,16]
 BV BND1      x[19,16]
 BV BND1      x[17,17]
 BV BND1      x[4,17] 
 BV BND1      x[18,18]
 BV BND1      x[24,18]
 BV BND1      x[19,19]
 BV BND1      x[16,19]
 BV BND1      x[20,20]
 BV BND1      x[13,20]
 BV BND1      x[21,21]
 BV BND1      x[9,21] 
 BV BND1      x[22,22]
 BV BND1      x[6,22] 
 BV BND1      x[23,23]
 BV BND1      x[13,23]
 BV BND1      x[24,24]
 BV BND1      x[18,24]
 BV BND1      x[25,25]
 BV BND1      x[23,25]
 BV BND1      x[26,26]
 BV BND1      x[12,26]
 BV BND1      x[27,27]
 BV BND1      x[11,27]
 BV BND1      x[28,28]
 BV BND1      x[8,28] 
ENDATA
